# LAMMPS input script for ReaxFF simulation
# Generated by PoreReax package

boundary p p p
units real
atom_style full
read_data system.data

pair_style reaxff NULL safezone 3.0 mincap 150
pair_coeff * * reax.ffield {{ atoms }}
fix myqeq all qeq/reaxff 1 0.0 10.0 1.0e-6 reaxff maxiter 400

fix myspec_initial all reaxff/species 1 1 1 initial.species element {{ atoms }}
timestep 0.0001
run 1
unfix myspec_initial
reset_timestep 0

write_restart reax_run_0.data
